n = 85;
rows = 235;
supports = [|
  {1},{1},
 |{1},11..76,
 |{2},{2},
 |{2},12..77,
 |{3},{3},
 |{3},13..78,
 |{4},{4},
 |{4},14..79,
 |{5},{5},
 |{5},15..80,
 |{6},{6},
 |{6},16..81,
 |{7},{7},
 |{7},17..82,
 |{8},{8},
 |{8},18..83,
 |{9},{9},
 |{9},19..84,
 |{10},{10},
 |{10},20..85,
 |{11},{11},
 |{11},{1},
 |{11},21..85,
 |{12},{12},
 |{12},1..2,
 |{12},22..85,
 |{13},{13},
 |{13},1..3,
 |{13},23..85,
 |{14},{14},
 |{14},1..4,
 |{14},24..85,
 |{15},{15},
 |{15},1..5,
 |{15},25..85,
 |{16},{16},
 |{16},1..6,
 |{16},26..85,
 |{17},{17},
 |{17},1..7,
 |{17},27..85,
 |{18},{18},
 |{18},1..8,
 |{18},28..85,
 |{19},{19},
 |{19},1..9,
 |{19},29..85,
 |{20},{20},
 |{20},1..10,
 |{20},30..85,
 |{21},{21},
 |{21},1..11,
 |{21},31..85,
 |{22},{22},
 |{22},1..12,
 |{22},32..85,
 |{23},{23},
 |{23},1..13,
 |{23},33..85,
 |{24},{24},
 |{24},1..14,
 |{24},34..85,
 |{25},{25},
 |{25},1..15,
 |{25},35..85,
 |{26},{26},
 |{26},1..16,
 |{26},36..85,
 |{27},{27},
 |{27},1..17,
 |{27},37..85,
 |{28},{28},
 |{28},1..18,
 |{28},38..85,
 |{29},{29},
 |{29},1..19,
 |{29},39..85,
 |{30},{30},
 |{30},1..20,
 |{30},40..85,
 |{31},{31},
 |{31},1..21,
 |{31},41..85,
 |{32},{32},
 |{32},1..22,
 |{32},42..85,
 |{33},{33},
 |{33},1..23,
 |{33},43..85,
 |{34},{34},
 |{34},1..24,
 |{34},44..85,
 |{35},{35},
 |{35},1..25,
 |{35},45..85,
 |{36},{36},
 |{36},1..26,
 |{36},46..85,
 |{37},{37},
 |{37},1..27,
 |{37},47..85,
 |{38},{38},
 |{38},1..28,
 |{38},48..85,
 |{39},{39},
 |{39},1..29,
 |{39},49..85,
 |{40},{40},
 |{40},1..30,
 |{40},50..85,
 |{41},{41},
 |{41},1..31,
 |{41},51..85,
 |{42},{42},
 |{42},1..32,
 |{42},52..85,
 |{43},{43},
 |{43},1..33,
 |{43},53..85,
 |{44},{44},
 |{44},1..34,
 |{44},54..85,
 |{45},{45},
 |{45},1..35,
 |{45},55..85,
 |{46},{46},
 |{46},1..36,
 |{46},56..85,
 |{47},{47},
 |{47},1..37,
 |{47},57..85,
 |{48},{48},
 |{48},1..38,
 |{48},58..85,
 |{49},{49},
 |{49},1..39,
 |{49},59..85,
 |{50},{50},
 |{50},1..40,
 |{50},60..85,
 |{51},{51},
 |{51},1..41,
 |{51},61..85,
 |{52},{52},
 |{52},1..42,
 |{52},62..85,
 |{53},{53},
 |{53},1..43,
 |{53},63..85,
 |{54},{54},
 |{54},1..44,
 |{54},64..85,
 |{55},{55},
 |{55},1..45,
 |{55},65..85,
 |{56},{56},
 |{56},1..46,
 |{56},66..85,
 |{57},{57},
 |{57},1..47,
 |{57},67..85,
 |{58},{58},
 |{58},1..48,
 |{58},68..85,
 |{59},{59},
 |{59},1..49,
 |{59},69..85,
 |{60},{60},
 |{60},1..50,
 |{60},70..85,
 |{61},{61},
 |{61},1..51,
 |{61},71..85,
 |{62},{62},
 |{62},1..52,
 |{62},72..85,
 |{63},{63},
 |{63},1..53,
 |{63},73..85,
 |{64},{64},
 |{64},1..54,
 |{64},74..85,
 |{65},{65},
 |{65},1..55,
 |{65},75..85,
 |{66},{66},
 |{66},1..56,
 |{66},76..85,
 |{67},{67},
 |{67},1..57,
 |{67},77..85,
 |{68},{68},
 |{68},1..58,
 |{68},78..85,
 |{69},{69},
 |{69},1..59,
 |{69},79..85,
 |{70},{70},
 |{70},1..60,
 |{70},80..85,
 |{71},{71},
 |{71},1..61,
 |{71},81..85,
 |{72},{72},
 |{72},1..62,
 |{72},82..85,
 |{73},{73},
 |{73},1..63,
 |{73},83..85,
 |{74},{74},
 |{74},1..64,
 |{74},84..85,
 |{75},{75},
 |{75},1..65,
 |{75},{85},
 |{76},{76},
 |{76},1..66,
 |{77},{77},
 |{77},2..67,
 |{78},{78},
 |{78},3..68,
 |{79},{79},
 |{79},4..69,
 |{80},{80},
 |{80},5..70,
 |{81},{81},
 |{81},6..71,
 |{82},{82},
 |{82},7..72,
 |{83},{83},
 |{83},8..73,
 |{84},{84},
 |{84},9..74,
 |{85},{85},
 |{85},10..75 |];

t = 219;

indexes = [|
    0,6,
  | 0,24,
  | 0,30,
  | 0,60,
  | 0,77,
  | 1,8,
  | 1,13,
  | 1,26,
  | 1,50,
  | 1,73,
  | 1,76,
  | 1,79,
  | 2,23,
  | 2,58,
  | 2,59,
  | 2,67,
  | 2,75,
  | 3,15,
  | 3,21,
  | 3,61,
  | 3,68,
  | 3,69,
  | 3,84,
  | 4,23,
  | 4,27,
  | 4,40,
  | 4,58,
  | 5,18,
  | 5,51,
  | 5,63,
  | 5,67,
  | 5,83,
  | 6,15,
  | 6,26,
  | 6,38,
  | 6,60,
  | 6,77,
  | 6,79,
  | 7,10,
  | 7,37,
  | 7,41,
  | 7,57,
  | 7,66,
  | 8,13,
  | 8,49,
  | 8,50,
  | 8,61,
  | 9,10,
  | 9,48,
  | 10,37,
  | 10,41,
  | 10,48,
  | 10,66,
  | 11,29,
  | 11,36,
  | 11,53,
  | 12,20,
  | 12,25,
  | 12,34,
  | 12,35,
  | 12,54,
  | 12,81,
  | 13,23,
  | 13,25,
  | 13,39,
  | 13,40,
  | 13,43,
  | 13,49,
  | 13,73,
  | 14,31,
  | 14,33,
  | 14,56,
  | 14,57,
  | 14,71,
  | 15,26,
  | 15,38,
  | 15,50,
  | 15,61,
  | 15,84,
  | 16,46,
  | 16,64,
  | 16,72,
  | 17,19,
  | 17,28,
  | 17,34,
  | 17,44,
  | 17,54,
  | 17,65,
  | 18,30,
  | 18,51,
  | 18,67,
  | 18,74,
  | 18,77,
  | 18,79,
  | 19,21,
  | 19,28,
  | 19,42,
  | 19,62,
  | 19,65,
  | 19,69,
  | 20,32,
  | 20,34,
  | 20,52,
  | 20,81,
  | 21,62,
  | 21,64,
  | 21,68,
  | 21,69,
  | 22,36,
  | 22,47,
  | 22,53,
  | 22,78,
  | 23,40,
  | 23,58,
  | 23,59,
  | 23,73,
  | 24,30,
  | 24,60,
  | 25,35,
  | 25,43,
  | 25,49,
  | 25,54,
  | 26,50,
  | 26,79,
  | 27,40,
  | 28,49,
  | 28,54,
  | 28,61,
  | 28,69,
  | 29,53,
  | 29,70,
  | 29,72,
  | 30,51,
  | 30,77,
  | 31,45,
  | 31,46,
  | 31,55,
  | 31,56,
  | 31,71,
  | 32,34,
  | 32,37,
  | 32,44,
  | 32,52,
  | 32,80,
  | 33,37,
  | 33,44,
  | 33,57,
  | 33,65,
  | 33,71,
  | 33,80,
  | 34,44,
  | 34,54,
  | 35,39,
  | 35,43,
  | 35,81,
  | 36,53,
  | 37,52,
  | 37,57,
  | 37,66,
  | 37,80,
  | 38,60,
  | 38,82,
  | 38,84,
  | 39,40,
  | 39,43,
  | 42,55,
  | 42,62,
  | 42,65,
  | 42,71,
  | 44,65,
  | 44,80,
  | 45,46,
  | 45,56,
  | 45,70,
  | 45,72,
  | 46,55,
  | 46,62,
  | 46,64,
  | 46,72,
  | 47,56,
  | 47,78,
  | 48,52,
  | 48,66,
  | 49,54,
  | 49,61,
  | 50,61,
  | 51,63,
  | 52,66,
  | 52,81,
  | 53,70,
  | 53,78,
  | 55,62,
  | 55,71,
  | 56,70,
  | 56,78,
  | 58,75,
  | 59,67,
  | 59,73,
  | 59,76,
  | 60,82,
  | 61,69,
  | 62,64,
  | 63,67,
  | 63,75,
  | 63,83,
  | 64,68,
  | 65,71,
  | 67,74,
  | 67,75,
  | 67,76,
  | 68,84,
  | 70,72,
  | 70,78,
  | 73,76,
  | 74,76,
  | 74,79,
  | 76,79,
  | 77,79,
  | 82,84 |];

